NAME: I21833-n76-k10
COMMENT : (Fake et al, No of trucks: 10, Optimal value: )
TYPE : CVRP
DIMENSION : 76
EDGE_WEIGHT_TYPE : EUC_2D
CAPACITY : 14
NODE_COORD_SECTION
1 957 807
2 284 994
3 965 332
4 55 216
5 886 820
6 225 571
7 285 505
8 636 434
9 43 691
10 447 941
11 732 522
12 579 639
13 684 647
14 26 496
15 242 56
16 786 28
17 478 46
18 470 691
19 226 547
20 409 120
21 826 438
22 317 94
23 68 664
24 352 861
25 75 335
26 153 344
27 653 546
28 219 466
29 485 59
30 192 322
31 431 753
32 691 783
33 581 899
34 26 320
35 573 444
36 346 237
37 507 513
38 560 270
39 815 279
40 300 480
41 141 104
42 675 55
43 24 983
44 18 648
45 933 653
46 499 478
47 955 232
48 867 106
49 699 437
50 481 35
51 905 257
52 487 774
53 307 622
54 478 418
55 231 329
56 613 354
57 536 279
58 910 860
59 60 976
60 442 24
61 102 854
62 433 983
63 0 515
64 456 249
65 340 378
66 827 953
67 410 796
68 890 558
69 861 996
70 74 81
71 993 839
72 89 456
73 852 30
74 148 834
75 558 861
76 423 835
DEMAND_SECTION
1 0
2 2
3 2
4 2
5 2
6 2
7 2
8 2
9 1
10 2
11 1
12 1
13 2
14 1
15 1
16 1
17 1
18 2
19 2
20 1
21 2
22 1
23 2
24 1
25 2
26 2
27 1
28 1
29 1
30 2
31 2
32 1
33 2
34 1
35 1
36 2
37 1
38 1
39 2
40 2
41 1
42 2
43 2
44 1
45 2
46 2
47 1
48 2
49 1
50 1
51 2
52 2
53 1
54 2
55 2
56 1
57 1
58 2
59 2
60 2
61 1
62 2
63 2
64 2
65 1
66 1
67 1
68 1
69 1
70 2
71 2
72 2
73 2
74 1
75 2
76 2
DEPOT_SECTION
 1
 -1
 EOF 